
Gurobi 12.0.1 (win64, C++) logging started Thu Apr 17 22:33:53 2025

Set parameter Username
Academic license - for non-commercial use only - expires 2026-01-06
Set parameter Threads to value 8
Set parameter LazyConstraints to value 1
Set parameter PreCrush to value 1
Set parameter Seed to value 10
Set parameter Cuts to value -1
Set parameter TimeLimit to value 28800
Set parameter NumericFocus to value 0
Set parameter SolutionLimit to value 10000
Gurobi Optimizer version 12.0.1 build v12.0.1rc0 (win64 - Windows Server 2022.0 (20348.2))

CPU model: AMD EPYC 7513 32-Core Processor, instruction set [SSE2|AVX|AVX2]
Thread count: 18 physical cores, 18 logical processors, using up to 8 threads

Non-default parameters:
SolutionLimit  10000
TimeLimit  28800
PreCrush  1
Seed  10
Threads  8
LazyConstraints  1

Optimize a model with 232 rows, 441 columns and 1260 nonzeros
Model fingerprint: 0xf88ae90c
Variable types: 0 continuous, 441 integer (441 binary)
Coefficient statistics:
  Matrix range     [1e+00, 1e+00]
  Objective range  [6e+00, 6e+01]
  Bounds range     [1e+00, 1e+00]
  RHS range        [1e+00, 4e+00]

User MIP start produced solution with objective 381.453 (0.01s)
Loaded user MIP start with objective 381.453

Presolve removed 2 rows and 23 columns
Presolve time: 0.00s
Presolved: 230 rows, 418 columns, 1194 nonzeros
Variable types: 0 continuous, 418 integer (418 binary)

Root relaxation: objective 2.923362e+02, 67 iterations, 0.00 seconds (0.00 work units)

    Nodes    |    Current Node    |     Objective Bounds      |     Work
 Expl Unexpl |  Obj  Depth IntInf | Incumbent    BestBd   Gap | It/Node Time

     0     0  292.33623    0    -  381.45307  292.33623  23.4%     -    0s
     0     0  307.94455    0    -  381.45307  307.94455  19.3%     -    0s
     0     0  319.25762    0    -  381.45307  319.25762  16.3%     -    0s
     0     0  320.93098    0    -  381.45307  320.93098  15.9%     -    0s
     0     0  321.37940    0   32  381.45307  321.37940  15.7%     -    0s
     0     0  321.50629    0    -  381.45307  321.50629  15.7%     -    0s
     0     0  335.72328    0   24  381.45307  335.72328  12.0%     -    0s
     0     0  335.73303    0    -  381.45307  335.73303  12.0%     -    0s
     0     0  343.78790    0    -  381.45307  343.78790  9.87%     -    0s
     0     0  345.52445    0   28  381.45307  345.52445  9.42%     -    0s
     0     0  345.52445    0   30  381.45307  345.52445  9.42%     -    0s
     0     0  345.52445    0   24  381.45307  345.52445  9.42%     -    0s
     0     2  345.52445    0   24  381.45307  345.52445  9.42%     -    0s
   136   135  356.49014   12   67  381.45307  351.38729  7.88%  35.5    5s
*  342   318              40     368.5649265  351.68221  4.58%  28.3    7s
*  421   349              11     362.2714829  352.64958  2.66%  30.0    8s

Cutting planes:
  Gomory: 6
  Zero half: 1
  Lazy constraints: 1882

Explored 989 nodes (23139 simplex iterations) in 8.83 seconds (2.13 work units)
Thread count was 8 (of 18 available processors)

Solution count 3: 362.271 368.565 381.453 

Optimal solution found (tolerance 1.00e-04)
Best objective 3.622714828967e+02, best bound 3.622714828967e+02, gap 0.0000%

User-callback calls 2330, time in user-callback 7.07 sec
### START EXACT APPROACH ###
ProblemVariant: 5
### START PREPROCESSING ###
## Start infeasible path procedure ## 
Deleted arcs: 2
Infeasible tail paths: 0
Infeasible 2-node combinations: 1
## Start extended infeasible path procedure ##
Deleted arcs: 2
Infeasible tail paths: 0
Infeasible 2-node combinations: 1
## Start start solution procedure ##
Start solution with 4 Vehicles and total costs 381.453 in 1.24864 s.
### END PREPROCESSING ###
Route 0 0-1-19-10-12-18-16-0 : weight util 0.964706 | volume util 0.727356 | infeasible with packing heuristic | feasible with CP model
Route 1 0-2-5-20-11-6-0 : weight util 0.952941 | volume util 0.553267 | feasible with packing heuristic | feasible with CP model
Route 2 0-4-15-3-9-7-0 : weight util 0.988235 | volume util 0.324600 | feasible with packing heuristic | feasible with CP model
Route 3 0-17-13-14-8-0 : weight util 0.964706 | volume util 0.635511 | feasible with packing heuristic | feasible with CP model
